VALUE 2400663
1 237
5 170
8 143
11 208
13 191
15 175
5 17
19 147
23 234
24 228
26 148
27 149
32 199
34 39
35 140
38 43
39 135
42 47
43 130
46 51
47 125
50 55
51 120
54 59
55 115
58 110
59 256
62 105
58 63
66 100
62 67
70 95
66 71
74 90
70 75
74 79
81 87
82 84
81 84
79 87
75 90
71 95
67 100
63 105
59 110
54 115
50 120
46 125
42 130
38 135
34 140
143 147
35 145
145 146
17 147
146 148
26 149
146 154
160 161
161 162
154 162
160 163
163 164
163 165
164 167
165 170
167 171
171 175
15 182
182 185
185 189
189 191
27 198
198 199
198 200
200 202
202 204
204 206
206 208
32 228
24 230
230 231
231 234
23 237
1 239
5 240
8 241
11 242
13 243
15 244
17 245
19 246
24 247
27 248
32 249
34 250
38 251
42 252
46 253
50 254
54 255
63 257
67 258
71 259
75 260
79 261
82 262

